HUN,8,6,894
4,23,5,30,2,29,1,25,0,22,3,28
4,27,0,22,1,27,3,25,2,25,5,24
5,27,0,24,2,21,3,29,4,24,1,26
2,24,5,22,4,24,1,28,3,24,0,22
4,28,5,23,1,27,3,23,2,26,0,26
5,21,0,26,1,25,4,22,2,28,3,25
5,29,0,29,3,24,4,28,2,26,1,25
1,29,4,23,0,27,3,30,5,23,2,23
